BAYES
400
2 2 2 2 2 2 2 2 2 2 2 2 2 2 2 2 2 2 2 2 2 2 2 2 2 2 2 2 2 2 2 2 2 2 2 2 2 2 2 2 2 2 2 2 2 2 2 2 2 2 2 2 2 2 2 2 2 2 2 2 2 2 2 2 2 2 2 2 2 2 2 2 2 2 2 2 2 2 2 2 2 2 2 2 2 2 2 2 2 2 2 2 2 2 2 2 2 2 2 2 2 2 2 2 2 2 2 2 2 2 2 2 2 2 2 2 2 2 2 2 2 2 2 2 2 2 2 2 2 2 2 2 2 2 2 2 2 2 2 2 2 2 2 2 2 2 2 2 2 2 2 2 2 2 2 2 2 2 2 2 2 2 2 2 2 2 2 2 2 2 2 2 2 2 2 2 2 2 2 2 2 2 2 2 2 2 2 2 2 2 2 2 2 2 2 2 2 2 2 2 2 2 2 2 2 2 2 2 2 2 2 2 2 2 2 2 2 2 2 2 2 2 2 2 2 2 2 2 2 2 2 2 2 2 2 2 2 2 2 2 2 2 2 2 2 2 2 2 2 2 2 2 2 2 2 2 2 2 2 2 2 2 2 2 2 2 2 2 2 2 2 2 2 2 2 2 2 2 2 2 2 2 2 2 2 2 2 2 2 2 2 2 2 2 2 2 2 2 2 2 2 2 2 2 2 2 2 2 2 2 2 2 2 2 2 2 2 2 2 2 2 2 2 2 2 2 2 2 2 2 2 2 2 2 2 2 2 2 2 2 2 2 2 2 2 2 2 2 2 2 2 2 2 2 2 2 2 2 2 2 2 2 2 2 2 2 2 2 2 2 2 2 2 2 2 2 2 2 2 2 2 2 2 2 2 2 2 2 2 2 2 2 2 2 2 2 2 2 2 2
400
3 20 1 0
3 21 2 1
3 22 3 2
3 23 4 3
3 24 5 4
3 25 6 5
3 26 7 6
3 27 8 7
3 28 9 8
3 29 10 9
3 30 11 10
3 31 12 11
3 32 13 12
3 33 14 13
3 34 15 14
3 35 16 15
3 36 17 16
3 37 18 17
3 38 19 18
2 39 19
3 40 21 20
3 41 22 21
3 42 23 22
3 43 24 23
3 44 25 24
3 45 26 25
3 46 27 26
3 47 28 27
3 48 29 28
3 49 30 29
3 50 31 30
3 51 32 31
3 52 33 32
3 53 34 33
3 54 35 34
3 55 36 35
3 56 37 36
3 57 38 37
3 58 39 38
2 59 39
3 60 41 40
3 61 42 41
3 62 43 42
3 63 44 43
3 64 45 44
3 65 46 45
3 66 47 46
3 67 48 47
3 68 49 48
3 69 50 49
3 70 51 50
3 71 52 51
3 72 53 52
3 73 54 53
3 74 55 54
3 75 56 55
3 76 57 56
3 77 58 57
3 78 59 58
2 79 59
3 80 61 60
3 81 62 61
3 82 63 62
3 83 64 63
3 84 65 64
3 85 66 65
3 86 67 66
3 87 68 67
3 88 69 68
3 89 70 69
3 90 71 70
3 91 72 71
3 92 73 72
3 93 74 73
3 94 75 74
3 95 76 75
3 96 77 76
3 97 78 77
3 98 79 78
2 99 79
3 100 81 80
3 101 82 81
3 102 83 82
3 103 84 83
3 104 85 84
3 105 86 85
3 106 87 86
3 107 88 87
3 108 89 88
3 109 90 89
3 110 91 90
3 111 92 91
3 112 93 92
3 113 94 93
3 114 95 94
3 115 96 95
3 116 97 96
3 117 98 97
3 118 99 98
2 119 99
3 120 101 100
3 121 102 101
3 122 103 102
3 123 104 103
3 124 105 104
3 125 106 105
3 126 107 106
3 127 108 107
3 128 109 108
3 129 110 109
3 130 111 110
3 131 112 111
3 132 113 112
3 133 114 113
3 134 115 114
3 135 116 115
3 136 117 116
3 137 118 117
3 138 119 118
2 139 119
3 140 121 120
3 141 122 121
3 142 123 122
3 143 124 123
3 144 125 124
3 145 126 125
3 146 127 126
3 147 128 127
3 148 129 128
3 149 130 129
3 150 131 130
3 151 132 131
3 152 133 132
3 153 134 133
3 154 135 134
3 155 136 135
3 156 137 136
3 157 138 137
3 158 139 138
2 159 139
3 160 141 140
3 161 142 141
3 162 143 142
3 163 144 143
3 164 145 144
3 165 146 145
3 166 147 146
3 167 148 147
3 168 149 148
3 169 150 149
3 170 151 150
3 171 152 151
3 172 153 152
3 173 154 153
3 174 155 154
3 175 156 155
3 176 157 156
3 177 158 157
3 178 159 158
2 179 159
3 180 161 160
3 181 162 161
3 182 163 162
3 183 164 163
3 184 165 164
3 185 166 165
3 186 167 166
3 187 168 167
3 188 169 168
3 189 170 169
3 190 171 170
3 191 172 171
3 192 173 172
3 193 174 173
3 194 175 174
3 195 176 175
3 196 177 176
3 197 178 177
3 198 179 178
2 199 179
3 200 181 180
3 201 182 181
3 202 183 182
3 203 184 183
3 204 185 184
3 205 186 185
3 206 187 186
3 207 188 187
3 208 189 188
3 209 190 189
3 210 191 190
3 211 192 191
3 212 193 192
3 213 194 193
3 214 195 194
3 215 196 195
3 216 197 196
3 217 198 197
3 218 199 198
2 219 199
3 220 201 200
3 221 202 201
3 222 203 202
3 223 204 203
3 224 205 204
3 225 206 205
3 226 207 206
3 227 208 207
3 228 209 208
3 229 210 209
3 230 211 210
3 231 212 211
3 232 213 212
3 233 214 213
3 234 215 214
3 235 216 215
3 236 217 216
3 237 218 217
3 238 219 218
2 239 219
3 240 221 220
3 241 222 221
3 242 223 222
3 243 224 223
3 244 225 224
3 245 226 225
3 246 227 226
3 247 228 227
3 248 229 228
3 249 230 229
3 250 231 230
3 251 232 231
3 252 233 232
3 253 234 233
3 254 235 234
3 255 236 235
3 256 237 236
3 257 238 237
3 258 239 238
2 259 239
3 260 241 240
3 261 242 241
3 262 243 242
3 263 244 243
3 264 245 244
3 265 246 245
3 266 247 246
3 267 248 247
3 268 249 248
3 269 250 249
3 270 251 250
3 271 252 251
3 272 253 252
3 273 254 253
3 274 255 254
3 275 256 255
3 276 257 256
3 277 258 257
3 278 259 258
2 279 259
3 280 261 260
3 281 262 261
3 282 263 262
3 283 264 263
3 284 265 264
3 285 266 265
3 286 267 266
3 287 268 267
3 288 269 268
3 289 270 269
3 290 271 270
3 291 272 271
3 292 273 272
3 293 274 273
3 294 275 274
3 295 276 275
3 296 277 276
3 297 278 277
3 298 279 278
2 299 279
3 300 281 280
3 301 282 281
3 302 283 282
3 303 284 283
3 304 285 284
3 305 286 285
3 306 287 286
3 307 288 287
3 308 289 288
3 309 290 289
3 310 291 290
3 311 292 291
3 312 293 292
3 313 294 293
3 314 295 294
3 315 296 295
3 316 297 296
3 317 298 297
3 318 299 298
2 319 299
3 320 301 300
3 321 302 301
3 322 303 302
3 323 304 303
3 324 305 304
3 325 306 305
3 326 307 306
3 327 308 307
3 328 309 308
3 329 310 309
3 330 311 310
3 331 312 311
3 332 313 312
3 333 314 313
3 334 315 314
3 335 316 315
3 336 317 316
3 337 318 317
3 338 319 318
2 339 319
3 340 321 320
3 341 322 321
3 342 323 322
3 343 324 323
3 344 325 324
3 345 326 325
3 346 327 326
3 347 328 327
3 348 329 328
3 349 330 329
3 350 331 330
3 351 332 331
3 352 333 332
3 353 334 333
3 354 335 334
3 355 336 335
3 356 337 336
3 357 338 337
3 358 339 338
2 359 339
3 360 341 340
3 361 342 341
3 362 343 342
3 363 344 343
3 364 345 344
3 365 346 345
3 366 347 346
3 367 348 347
3 368 349 348
3 369 350 349
3 370 351 350
3 371 352 351
3 372 353 352
3 373 354 353
3 374 355 354
3 375 356 355
3 376 357 356
3 377 358 357
3 378 359 358
2 379 359
3 380 361 360
3 381 362 361
3 382 363 362
3 383 364 363
3 384 365 364
3 385 366 365
3 386 367 366
3 387 368 367
3 388 369 368
3 389 370 369
3 390 371 370
3 391 372 371
3 392 373 372
3 393 374 373
3 394 375 374
3 395 376 375
3 396 377 376
3 397 378 377
3 398 379 378
2 399 379
2 381 380
2 382 381
2 383 382
2 384 383
2 385 384
2 386 385
2 387 386
2 388 387
2 389 388
2 390 389
2 391 390
2 392 391
2 393 392
2 394 393
2 395 394
2 396 395
2 397 396
2 398 397
2 399 398
1  399
8
1 0 0 1 0 1 1 0
8
0 1 0 1 0 1 1 0
8
0 1 1 0 1 0 1 0
8
0.34135302732816597 0.658646972671834 0.5252428291132695 0.47475717088673053 0.6065694332611027 0.39343056673889726 0.5628682138978671 0.43713178610213277
8
1 0 1 0 1 0 0 1
8
0 1 0 1 0 1 1 0
8
0 1 1 0 0 1 0 1
8
1 0 1 0 1 0 1 0
8
0 1 0 1 0 1 0 1
8
1 0 1 0 1 0 1 0
8
0 1 0 1 1 0 1 0
8
0 1 0 1 0 1 0 1
8
1 0 0 1 0 1 1 0
8
1 0 0 1 0 1 0 1
8
1 0 0 1 1 0 1 0
8
1 0 1 0 1 0 1 0
8
1 0 0 1 1 0 1 0
8
1 0 1 0 0 1 1 0
8
0 1 1 0 1 0 1 0
4
1 0 1 0
8
1 0 1 0 0 1 1 0
8
1 0 1 0 0 1 0 1
8
1 0 1 0 1 0 0 1
8
0 1 1 0 1 0 1 0
8
0 1 1 0 1 0 1 0
8
0 1 1 0 0 1 0 1
8
1 0 0 1 0 1 1 0
8
0 1 1 0 1 0 0 1
8
1 0 1 0 0 1 1 0
8
1 0 1 0 1 0 0 1
8
1 0 1 0 0 1 0 1
8
0 1 0 1 1 0 1 0
8
0 1 1 0 0 1 0 1
8
0 1 1 0 0 1 0 1
8
1 0 1 0 1 0 1 0
8
1 0 1 0 1 0 1 0
8
0 1 1 0 1 0 0 1
8
1 0 0 1 0 1 1 0
8
1 0 1 0 1 0 1 0
4
1 0 0 1
8
0 1 0 1 1 0 1 0
8
1 0 1 0 1 0 1 0
8
0.7925771591557019 0.20742284084429802 0.6091198498696612 0.39088015013033894 0.5886616527739655 0.4113383472260345 0.6395284979231471 0.36047150207685286
8
0.7483463537037399 0.25165364629625997 0.34777742512422805 0.652222574875772 0.8919748585847479 0.10802514141525212 0.5776757991186977 0.4223242008813023
8
0 1 1 0 1 0 1 0
8
0 1 0 1 1 0 0 1
8
0 1 0 1 0 1 1 0
8
1 0 0 1 0 1 1 0
8
1 0 1 0 1 0 0 1
8
1 0 0 1 1 0 0 1
8
0 1 1 0 1 0 1 0
8
1 0 0 1 1 0 0 1
8
0 1 1 0 1 0 1 0
8
1 0 0 1 1 0 1 0
8
1 0 1 0 1 0 1 0
8
1 0 1 0 0 1 0 1
8
1 0 1 0 0 1 0 1
8
0 1 1 0 0 1 0 1
8
0.5034223423265448 0.49657765767345524 0.03638841951897483 0.9636115804810251 0.6819232248301758 0.31807677516982413 0.41488920352147113 0.5851107964785289
4
1 0 1 0
8
0.5559856621768754 0.44401433782312455 0.13731363463829505 0.8626863653617051 0.520504593329143 0.479495406670857 0.0231758427678903 0.9768241572321098
8
1 0 0 1 1 0 1 0
8
0 1 1 0 1 0 1 0
8
1 0 0 1 0 1 1 0
8
0 1 1 0 0 1 0 1
8
0 1 1 0 0 1 0 1
8
0 1 0 1 1 0 0 1
8
0 1 1 0 1 0 0 1
8
0 1 0 1 1 0 1 0
8
1 0 0 1 1 0 0 1
8
1 0 1 0 1 0 0 1
8
0 1 1 0 1 0 0 1
8
1 0 1 0 1 0 1 0
8
0 1 1 0 0 1 0 1
8
1 0 1 0 0 1 1 0
8
1 0 0 1 0 1 1 0
8
0 1 1 0 1 0 0 1
8
0 1 0 1 0 1 0 1
8
0 1 0 1 1 0 0 1
4
0 1 1 0
8
0 1 0 1 1 0 0 1
8
0 1 0 1 0 1 0 1
8
0 1 1 0 0 1 0 1
8
1 0 1 0 0 1 1 0
8
1 0 0 1 0 1 0 1
8
1 0 1 0 1 0 0 1
8
0 1 0 1 0 1 0 1
8
0.5327319669707102 0.4672680330292897 0.724995359915808 0.275004640084192 0.6445219912815493 0.35547800871845076 0.7031080761054201 0.29689192389457986
8
1 0 0 1 0 1 0 1
8
1 0 1 0 1 0 0 1
8
0 1 1 0 0 1 0 1
8
0 1 0 1 0 1 1 0
8
1 0 1 0 1 0 1 0
8
1 0 0 1 0 1 0 1
8
1 0 1 0 1 0 0 1
8
1 0 0 1 0 1 0 1
8
0.4762939911278496 0.5237060088721505 0.34109027556677785 0.6589097244332222 0.5080767613820251 0.491923238617975 0.4457669530821009 0.5542330469178991
8
0 1 0 1 0 1 1 0
8
1 0 1 0 1 0 0 1
4
1 0 0 1
8
0 1 0 1 1 0 1 0
8
1 0 1 0 0 1 0 1
8
0.7080669914096327 0.29193300859036725 0.4498902716518702 0.5501097283481299 0.41505644576472656 0.5849435542352734 0.23834561935689902 0.761654380643101
8
1 0 1 0 1 0 0 1
8
1 0 1 0 0 1 1 0
8
0 1 1 0 1 0 1 0
8
0 1 0 1 1 0 0 1
8
1 0 0 1 1 0 0 1
8
1 0 0 1 1 0 1 0
8
1 0 0 1 0 1 1 0
8
0 1 1 0 1 0 0 1
8
1 0 1 0 0 1 0 1
8
1 0 1 0 0 1 1 0
8
1 0 1 0 0 1 1 0
8
0 1 1 0 0 1 0 1
8
1 0 0 1 0 1 0 1
8
0 1 1 0 0 1 0 1
8
1 0 0 1 0 1 0 1
8
0 1 1 0 0 1 1 0
4
1 0 1 0
8
0.2708181890757492 0.7291818109242508 0.7985858287017802 0.2014141712982198 0.36942732370024506 0.6305726762997549 0.5094433998635964 0.4905566001364036
8
0 1 1 0 1 0 1 0
8
1 0 1 0 0 1 1 0
8
1 0 0 1 1 0 1 0
8
0 1 1 0 1 0 0 1
8
1 0 1 0 1 0 1 0
8
0 1 1 0 1 0 1 0
8
0 1 1 0 0 1 0 1
8
0 1 1 0 1 0 0 1
8
1 0 1 0 1 0 1 0
8
0 1 0 1 0 1 0 1
8
1 0 0 1 0 1 1 0
8
0 1 1 0 1 0 0 1
8
1 0 1 0 0 1 0 1
8
0.7126513956593444 0.28734860434065557 0.5212867105683909 0.47871328943160907 0.5466927254098511 0.4533072745901488 0.33809530226943973 0.6619046977305603
8
0 1 1 0 1 0 1 0
8
1 0 0 1 1 0 1 0
8
0 1 1 0 0 1 0 1
8
1 0 1 0 1 0 0 1
4
0 1 0 1
8
1 0 0 1 0 1 1 0
8
1 0 0 1 1 0 1 0
8
1 0 0 1 1 0 0 1
8
1 0 0 1 1 0 1 0
8
1 0 1 0 0 1 1 0
8
1 0 1 0 0 1 0 1
8
1 0 1 0 0 1 0 1
8
0.3852415386431175 0.6147584613568825 0.9940588076123906 0.005941192387609367 0.49382266060260394 0.5061773393973961 0.48958169856177125 0.5104183014382289
8
1 0 1 0 0 1 0 1
8
0 1 0 1 1 0 0 1
8
1 0 1 0 1 0 0 1
8
0 1 0 1 1 0 1 0
8
0.5225698574360084 0.4774301425639917 0.6889721977004417 0.3110278022995583 0.6903734332084377 0.30962656679156236 0.4445510019858187 0.5554489980141813
8
1 0 0 1 1 0 1 0
8
0.45104735606356655 0.5489526439364334 0.4771998412284192 0.5228001587715808 0.3095994981332042 0.6904005018667959 0.8446384072445231 0.15536159275547695
8
1 0 0 1 1 0 1 0
8
1 0 0 1 1 0 0 1
8
1 0 0 1 0 1 0 1
8
0 1 0 1 1 0 1 0
4
0 1 1 0
8
0 1 1 0 0 1 0 1
8
1 0 1 0 1 0 1 0
8
0 1 1 0 1 0 1 0
8
0 1 0 1 0 1 1 0
8
0 1 1 0 0 1 1 0
8
1 0 1 0 0 1 0 1
8
0.3264568764567384 0.6735431235432617 0.3915442995855755 0.6084557004144245 0.6626449828203371 0.33735501717966293 0.9517822925898402 0.04821770741015984
8
1 0 0 1 1 0 1 0
8
1 0 1 0 1 0 1 0
8
0 1 1 0 1 0 0 1
8
1 0 1 0 0 1 0 1
8
1 0 0 1 1 0 0 1
8
0 1 1 0 1 0 0 1
8
1 0 0 1 1 0 1 0
8
0 1 0 1 0 1 0 1
8
1 0 1 0 1 0 1 0
8
0 1 1 0 0 1 0 1
8
1 0 0 1 0 1 0 1
8
0.5044188091775718 0.4955811908224283 0.42211111085395037 0.5778888891460495 0.6521849289850502 0.34781507101494974 0.5745287537432846 0.42547124625671545
4
0 1 1 0
8
1 0 1 0 0 1 0 1
8
1 0 0 1 1 0 1 0
8
0.5292679131362454 0.47073208686375445 0.4209357306928756 0.5790642693071244 0.7020883835114947 0.2979116164885053 0.3704456502210136 0.6295543497789864
8
1 0 0 1 1 0 0 1
8
1 0 1 0 1 0 1 0
8
1 0 1 0 0 1 0 1
8
0 1 1 0 0 1 1 0
8
0.5996470477541301 0.40035295224586975 0.26697057519670686 0.7330294248032931 0.22635516265522582 0.7736448373447741 0.4451505446637339 0.5548494553362662
8
0.4884528975408735 0.5115471024591266 0.8571619229420524 0.14283807705794757 0.058486284775251404 0.9415137152247486 0.539340067493886 0.460659932506114
8
0.45695795137095835 0.5430420486290416 0.18610681454826075 0.8138931854517393 0.7918133184536248 0.20818668154637526 0.44576028724880296 0.5542397127511971
8
0 1 1 0 1 0 1 0
8
0 1 0 1 0 1 0 1
8
0.5238122837242469 0.4761877162757531 0.9745652071692859 0.02543479283071412 0.4414817342822679 0.5585182657177321 0.49530562648047555 0.5046943735195245
8
0 1 0 1 1 0 0 1
8
0 1 0 1 1 0 1 0
8
1 0 0 1 0 1 0 1
8
1 0 1 0 0 1 1 0
8
0.28186148632533137 0.7181385136746686 0.46330808696458525 0.5366919130354147 0.6154483737977636 0.3845516262022363 0.9656731893112869 0.034326810688713086
8
1 0 1 0 1 0 1 0
4
1 0 1 0
8
1 0 0 1 1 0 0 1
8
1 0 0 1 0 1 1 0
8
1 0 0 1 1 0 1 0
8
1 0 1 0 0 1 0 1
8
1 0 1 0 0 1 0 1
8
0 1 0 1 1 0 0 1
8
1 0 1 0 1 0 0 1
8
0 1 1 0 1 0 1 0
8
1 0 0 1 1 0 1 0
8
0 1 1 0 0 1 1 0
8
1 0 1 0 0 1 1 0
8
1 0 0 1 1 0 0 1
8
1 0 1 0 1 0 0 1
8
0 1 0 1 1 0 0 1
8
1 0 0 1 1 0 0 1
8
0.2917089939691253 0.7082910060308747 0.38996477989719225 0.6100352201028078 0.6579209541429432 0.34207904585705684 0.596159802727839 0.4038401972721609
8
0 1 1 0 1 0 0 1
8
0 1 1 0 1 0 0 1
8
0 1 1 0 0 1 1 0
4
1 0 0 1
8
0.27086376871998596 0.729136231280014 0.37009612579626766 0.6299038742037324 0.9823964260959995 0.01760357390400044 0.9391086183251143 0.060891381674885676
8
0.3241725858781816 0.6758274141218185 0.2226084689371771 0.7773915310628229 0.17350560568569445 0.8264943943143055 0.5450816070745491 0.4549183929254509
8
0 1 0 1 0 1 1 0
8
1 0 0 1 1 0 1 0
8
1 0 1 0 0 1 1 0
8
0 1 0 1 1 0 0 1
8
1 0 0 1 0 1 0 1
8
1 0 1 0 1 0 1 0
8
0 1 0 1 1 0 1 0
8
1 0 1 0 1 0 0 1
8
1 0 0 1 1 0 1 0
8
1 0 1 0 1 0 0 1
8
0 1 0 1 1 0 1 0
8
1 0 0 1 0 1 1 0
8
1 0 1 0 1 0 0 1
8
0 1 0 1 1 0 0 1
8
1 0 0 1 1 0 1 0
8
0 1 1 0 0 1 0 1
8
1 0 0 1 0 1 0 1
4
1 0 0 1
8
0 1 1 0 1 0 0 1
8
0 1 0 1 0 1 1 0
8
1 0 0 1 1 0 1 0
8
0 1 0 1 1 0 0 1
8
0 1 1 0 0 1 0 1
8
0 1 0 1 0 1 1 0
8
0 1 0 1 0 1 0 1
8
1 0 1 0 0 1 1 0
8
1 0 0 1 1 0 0 1
8
0 1 1 0 1 0 0 1
8
1 0 1 0 1 0 0 1
8
1 0 0 1 1 0 0 1
8
0 1 1 0 1 0 1 0
8
1 0 0 1 0 1 0 1
8
1 0 0 1 1 0 0 1
8
1 0 1 0 1 0 0 1
8
1 0 1 0 1 0 1 0
8
0 1 0 1 1 0 0 1
8
1 0 0 1 1 0 0 1
4
1 0 0 1
8
1 0 1 0 0 1 0 1
8
0 1 0 1 1 0 0 1
8
1 0 1 0 0 1 0 1
8
1 0 1 0 0 1 1 0
8
0 1 1 0 1 0 0 1
8
0 1 1 0 1 0 0 1
8
1 0 1 0 1 0 0 1
8
0 1 0 1 1 0 1 0
8
1 0 1 0 1 0 1 0
8
0 1 1 0 0 1 1 0
8
0 1 1 0 1 0 1 0
8
0.4142942105321211 0.5857057894678788 0.3581418613518374 0.6418581386481627 0.7356802344045227 0.2643197655954773 0.6600248240253748 0.3399751759746253
8
1 0 0 1 1 0 0 1
8
1 0 1 0 1 0 1 0
8
0 1 0 1 1 0 0 1
8
0 1 1 0 1 0 1 0
8
1 0 0 1 0 1 1 0
8
0 1 1 0 0 1 1 0
8
0 1 0 1 0 1 0 1
4
0 1 0 1
8
0 1 0 1 1 0 1 0
8
1 0 0 1 0 1 1 0
8
0 1 0 1 0 1 1 0
8
0 1 0 1 0 1 1 0
8
0 1 1 0 0 1 1 0
8
0.4109759238089881 0.5890240761910118 0.8922633261549378 0.10773667384506223 0.5318899782495808 0.46811002175041916 0.8648311428421601 0.13516885715783994
8
0 1 1 0 1 0 1 0
8
1 0 0 1 1 0 0 1
8
0 1 0 1 0 1 0 1
8
0 1 0 1 1 0 1 0
8
0 1 0 1 1 0 0 1
8
1 0 0 1 1 0 1 0
8
0.711591162325743 0.288408837674257 0.40182146324942564 0.5981785367505743 0.9740263504947276 0.025973649505272336 0.4992313318269792 0.5007686681730208
8
1 0 0 1 1 0 1 0
8
1 0 1 0 0 1 0 1
8
1 0 1 0 1 0 0 1
8
1 0 0 1 1 0 1 0
8
0 1 0 1 0 1 1 0
8
0 1 0 1 0 1 0 1
4
1 0 0 1
8
0.4429088816706871 0.5570911183293129 0.9517023828020292 0.04829761719797073 0.45551850113991693 0.5444814988600832 0.4088128441409935 0.5911871558590065
8
0 1 0 1 0 1 1 0
8
0 1 0 1 1 0 0 1
8
1 0 0 1 0 1 1 0
8
0 1 0 1 1 0 1 0
8
1 0 0 1 1 0 0 1
8
0.579418579279936 0.4205814207200641 0.5470099383896069 0.4529900616103931 0.279295740927406 0.720704259072594 0.739865973238541 0.260134026761459
8
0 1 1 0 1 0 0 1
8
0 1 1 0 0 1 0 1
8
1 0 1 0 1 0 0 1
8
1 0 1 0 1 0 0 1
8
0 1 0 1 1 0 0 1
8
0.5272627388082828 0.4727372611917173 0.6598935544071288 0.34010644559287123 0.5055515988863527 0.4944484011136473 0.3017420603299862 0.6982579396700138
8
0.5597073505506197 0.4402926494493804 0.6218607507954754 0.3781392492045245 0.541537798648003 0.458462201351997 0.6417875895699341 0.3582124104300659
8
1 0 1 0 1 0 0 1
8
0 1 1 0 1 0 0 1
8
1 0 1 0 0 1 1 0
8
1 0 1 0 1 0 0 1
8
0 1 1 0 1 0 1 0
4
1 0 1 0
8
0 1 0 1 1 0 0 1
8
0 1 1 0 0 1 1 0
8
1 0 0 1 1 0 0 1
8
1 0 1 0 0 1 1 0
8
0.8334833639681567 0.16651663603184333 0.4524687279244675 0.5475312720755324 0.9624160488590602 0.037583951140939875 0.40522171280484154 0.5947782871951585
8
1 0 1 0 0 1 0 1
8
0 1 1 0 0 1 1 0
8
1 0 1 0 0 1 1 0
8
1 0 0 1 0 1 1 0
8
1 0 0 1 1 0 1 0
8
1 0 0 1 1 0 0 1
8
1 0 0 1 1 0 1 0
8
1 0 0 1 1 0 1 0
8
0.5812225408250096 0.41877745917499043 0.37943932642834116 0.6205606735716588 0.5540669769387732 0.44593302306122684 0.5721492216815585 0.42785077831844154
8
1 0 1 0 0 1 1 0
8
0.04764999836075832 0.9523500016392417 0.2931480692424975 0.7068519307575025 0.7022196424054663 0.29778035759453353 0.9607235917222002 0.03927640827779981
8
1 0 0 1 0 1 0 1
8
0 1 1 0 0 1 0 1
8
1 0 0 1 1 0 0 1
4
1 0 1 0
8
0 1 1 0 0 1 1 0
8
1 0 1 0 0 1 0 1
8
1 0 0 1 0 1 0 1
8
0 1 0 1 0 1 0 1
8
1 0 0 1 1 0 0 1
8
1 0 1 0 0 1 0 1
8
1 0 1 0 0 1 0 1
8
0 1 1 0 1 0 1 0
8
0 1 0 1 0 1 0 1
8
1 0 1 0 1 0 1 0
8
1 0 0 1 1 0 0 1
8
1 0 0 1 1 0 0 1
8
1 0 0 1 0 1 1 0
8
1 0 0 1 1 0 1 0
8
1 0 1 0 1 0 0 1
8
0.4798229976973185 0.5201770023026816 0.3940640244847677 0.6059359755152323 0.7144336576496265 0.2855663423503734 0.7653381973156315 0.2346618026843686
8
1 0 1 0 0 1 0 1
8
0 1 1 0 0 1 1 0
8
0 1 0 1 1 0 0 1
4
0 1 1 0
8
1 0 1 0 1 0 0 1
8
1 0 1 0 1 0 0 1
8
1 0 0 1 0 1 0 1
8
1 0 0 1 1 0 1 0
8
1 0 0 1 0 1 1 0
8
1 0 0 1 1 0 1 0
8
1 0 0 1 0 1 1 0
8
1 0 1 0 1 0 1 0
8
0 1 0 1 1 0 0 1
8
0.33050446631716746 0.6694955336828324 0.5738336646154324 0.42616633538456766 0.5999640272953691 0.4000359727046308 0.015685411991094737 0.9843145880089053
8
0.5264295006788751 0.47357049932112505 0.20060427676712586 0.7993957232328741 0.7097768255605972 0.2902231744394029 0.5185661574420148 0.48143384255798505
8
0 1 0 1 0 1 0 1
8
0 1 1 0 0 1 1 0
8
0 1 0 1 1 0 1 0
8
1 0 0 1 1 0 1 0
8
0 1 0 1 0 1 0 1
8
1 0 0 1 1 0 1 0
8
0 1 1 0 1 0 1 0
8
0 1 0 1 0 1 1 0
4
1 0 1 0
4
1 0 1 0
4
0 1 1 0
4
1 0 1 0
4
0 1 1 0
4
1 0 1 0
4
1 0 1 0
4
0 1 0 1
4
0.6332335434721725 0.36676645652782747 0.2681081918849139 0.731891808115086
4
1 0 0 1
4
0 1 1 0
4
1 0 0 1
4
0 1 0 1
4
1 0 0 1
4
1 0 1 0
4
1 0 1 0
4
1 0 1 0
4
0.05132545964967665 0.9486745403503234 0.4435092589343453 0.5564907410656547
4
0.32998417479753067 0.6700158252024694 0.3362393072541588 0.6637606927458413
4
0 1 0 1
2
1 0
